param n := 60;
param c := 3000
param : V : p w :=
   0	  55	 480
   1	  79	 256
   2	  68	 264
   3	  87	 373
   4	  43	 297
   5	  40	 330
   6	  46	 412
   7	  43	 281
   8	  33	 307
   9	  84	 392
  10	   8	 286
  11	  83	 322
  12	  83	 432
  13	  41	 265
  14	  30	 303
  15	  13	 478
  16	   6	 255
  17	   2	 267
  18	   4	 406
  19	  83	 268
  20	   5	 326
  21	  56	 365
  22	  83	 255
  23	  48	 380
  24	  79	 407
  25	  91	 279
  26	  16	 314
  27	  16	 378
  28	  15	 293
  29	  54	 329
  30	  40	 362
  31	  75	 273
  32	  79	 365
  33	  71	 487
  34	  82	 252
  35	  24	 261
  36	  66	 422
  37	  72	 260
  38	  64	 318
  39	  34	 410
  40	  79	 266
  41	  44	 324
  42	  82	 410
  43	  47	 263
  44	  83	 327
  45	  44	 370
  46	  43	 260
  47	  36	 370
  48	  47	 454
  49	  31	 250
  50	   2	 296
  51	  25	 366
  52	  67	 281
  53	 100	 353
  54	   3	 476
  55	  32	 260
  56	   2	 264
  57	  81	 465
  58	  50	 256
  59	  17	 279
;

set E :=
   0	   1
   0	   4
   0	   7
   0	   8
   0	   9
   0	  11
   0	  12
   0	  18
   0	  20
   0	  21
   0	  22
   0	  23
   0	  27
   0	  28
   0	  30
   0	  38
   0	  39
   0	  41
   0	  43
   0	  44
   0	  45
   0	  46
   0	  49
   0	  54
   0	  55
   0	  59
   1	   2
   1	   4
   1	   5
   1	  10
   1	  12
   1	  14
   1	  15
   1	  17
   1	  18
   1	  20
   1	  22
   1	  23
   1	  24
   1	  29
   1	  31
   1	  34
   1	  44
   1	  50
   1	  51
   1	  52
   1	  53
   1	  54
   1	  55
   1	  59
   2	   5
   2	   8
   2	   9
   2	  10
   2	  11
   2	  12
   2	  13
   2	  15
   2	  18
   2	  19
   2	  22
   2	  24
   2	  29
   2	  30
   2	  31
   2	  34
   2	  35
   2	  36
   2	  38
   2	  39
   2	  41
   2	  43
   2	  47
   2	  49
   2	  51
   2	  53
   2	  57
   3	   4
   3	   5
   3	   8
   3	   9
   3	  12
   3	  14
   3	  17
   3	  20
   3	  24
   3	  25
   3	  26
   3	  28
   3	  30
   3	  31
   3	  32
   3	  33
   3	  35
   3	  36
   3	  37
   3	  38
   3	  39
   3	  46
   3	  48
   3	  49
   3	  50
   3	  53
   3	  54
   3	  55
   3	  56
   3	  58
   3	  59
   4	   8
   4	  15
   4	  22
   4	  24
   4	  25
   4	  36
   4	  37
   4	  41
   4	  42
   4	  44
   4	  46
   4	  47
   4	  51
   4	  54
   4	  56
   4	  57
   4	  58
   5	   6
   5	   9
   5	  15
   5	  18
   5	  20
   5	  22
   5	  24
   5	  26
   5	  31
   5	  33
   5	  36
   5	  37
   5	  38
   5	  39
   5	  42
   5	  43
   5	  49
   5	  52
   5	  55
   5	  57
   5	  59
   6	   7
   6	   8
   6	  13
   6	  19
   6	  20
   6	  22
   6	  23
   6	  24
   6	  26
   6	  29
   6	  30
   6	  36
   6	  39
   6	  41
   6	  42
   6	  43
   6	  45
   6	  47
   6	  50
   6	  53
   6	  54
   7	  10
   7	  11
   7	  12
   7	  15
   7	  17
   7	  19
   7	  20
   7	  21
   7	  24
   7	  25
   7	  26
   7	  29
   7	  31
   7	  35
   7	  36
   7	  40
   7	  44
   7	  45
   7	  47
   7	  50
   7	  54
   7	  55
   7	  56
   7	  59
   8	   9
   8	  10
   8	  12
   8	  14
   8	  15
   8	  18
   8	  20
   8	  22
   8	  24
   8	  26
   8	  27
   8	  28
   8	  32
   8	  35
   8	  37
   8	  44
   8	  46
   8	  51
   8	  52
   8	  54
   8	  56
   8	  59
   9	  10
   9	  12
   9	  15
   9	  18
   9	  19
   9	  20
   9	  23
   9	  25
   9	  26
   9	  29
   9	  37
   9	  39
   9	  42
   9	  44
   9	  47
   9	  52
   9	  54
   9	  59
  10	  14
  10	  15
  10	  16
  10	  21
  10	  25
  10	  27
  10	  28
  10	  30
  10	  32
  10	  35
  10	  36
  10	  37
  10	  40
  10	  42
  10	  44
  10	  49
  10	  50
  10	  52
  10	  53
  10	  55
  10	  57
  11	  14
  11	  15
  11	  18
  11	  20
  11	  21
  11	  22
  11	  25
  11	  28
  11	  29
  11	  30
  11	  31
  11	  36
  11	  39
  11	  42
  11	  43
  11	  44
  11	  49
  11	  54
  11	  55
  11	  59
  12	  17
  12	  19
  12	  22
  12	  23
  12	  25
  12	  27
  12	  32
  12	  38
  12	  39
  12	  40
  12	  44
  12	  45
  12	  50
  12	  51
  12	  52
  12	  55
  12	  56
  12	  57
  13	  19
  13	  22
  13	  23
  13	  25
  13	  26
  13	  28
  13	  30
  13	  34
  13	  40
  13	  42
  13	  45
  13	  47
  13	  49
  13	  55
  13	  58
  13	  59
  14	  17
  14	  18
  14	  22
  14	  31
  14	  32
  14	  35
  14	  36
  14	  39
  14	  40
  14	  41
  14	  42
  14	  43
  14	  45
  14	  46
  14	  47
  14	  49
  14	  50
  14	  52
  14	  54
  14	  55
  14	  57
  14	  58
  15	  19
  15	  20
  15	  22
  15	  25
  15	  26
  15	  27
  15	  32
  15	  35
  15	  37
  15	  38
  15	  43
  15	  47
  15	  48
  15	  50
  15	  52
  15	  55
  15	  56
  15	  57
  16	  17
  16	  18
  16	  25
  16	  26
  16	  28
  16	  30
  16	  31
  16	  32
  16	  35
  16	  36
  16	  41
  16	  43
  16	  45
  16	  46
  16	  48
  16	  50
  16	  53
  16	  54
  17	  21
  17	  22
  17	  23
  17	  24
  17	  25
  17	  29
  17	  30
  17	  32
  17	  35
  17	  37
  17	  40
  17	  42
  17	  45
  17	  48
  17	  51
  17	  52
  17	  53
  17	  55
  17	  57
  18	  22
  18	  29
  18	  31
  18	  32
  18	  38
  18	  40
  18	  47
  18	  49
  18	  51
  18	  52
  18	  58
  18	  59
  19	  20
  19	  21
  19	  29
  19	  30
  19	  32
  19	  37
  19	  44
  19	  55
  19	  56
  19	  57
  20	  22
  20	  24
  20	  26
  20	  28
  20	  29
  20	  30
  20	  31
  20	  32
  20	  33
  20	  37
  20	  39
  20	  43
  20	  44
  20	  49
  20	  50
  20	  52
  20	  53
  20	  55
  20	  57
  21	  22
  21	  24
  21	  25
  21	  26
  21	  31
  21	  36
  21	  37
  21	  40
  21	  46
  21	  47
  21	  50
  21	  54
  21	  55
  21	  57
  22	  24
  22	  25
  22	  27
  22	  29
  22	  30
  22	  35
  22	  37
  22	  39
  22	  43
  22	  56
  22	  58
  22	  59
  23	  24
  23	  27
  23	  28
  23	  31
  23	  33
  23	  38
  23	  39
  23	  40
  23	  47
  23	  53
  23	  55
  23	  58
  23	  59
  24	  25
  24	  26
  24	  27
  24	  30
  24	  37
  24	  38
  24	  41
  24	  47
  24	  48
  24	  52
  24	  54
  24	  55
  24	  57
  25	  29
  25	  31
  25	  35
  25	  40
  25	  42
  25	  43
  25	  49
  25	  50
  25	  51
  25	  53
  25	  54
  25	  58
  25	  59
  26	  28
  26	  32
  26	  33
  26	  34
  26	  36
  26	  37
  26	  42
  26	  44
  26	  48
  26	  54
  26	  55
  26	  58
  27	  28
  27	  30
  27	  31
  27	  37
  27	  40
  27	  41
  27	  42
  27	  45
  27	  46
  27	  51
  27	  52
  27	  53
  27	  56
  28	  29
  28	  32
  28	  33
  28	  37
  28	  38
  28	  43
  28	  45
  28	  47
  28	  48
  28	  49
  28	  51
  28	  58
  29	  36
  29	  37
  29	  47
  29	  50
  29	  55
  29	  57
  29	  59
  30	  35
  30	  37
  30	  38
  30	  40
  30	  43
  30	  45
  30	  50
  30	  53
  30	  54
  30	  55
  30	  58
  31	  33
  31	  34
  31	  39
  31	  42
  31	  44
  31	  48
  31	  50
  31	  51
  31	  54
  31	  58
  31	  59
  32	  34
  32	  38
  32	  39
  32	  41
  32	  42
  32	  43
  32	  44
  32	  46
  32	  48
  32	  50
  32	  55
  32	  57
  32	  59
  33	  34
  33	  35
  33	  36
  33	  39
  33	  42
  33	  43
  33	  45
  33	  46
  33	  47
  33	  49
  33	  50
  33	  52
  34	  35
  34	  41
  34	  44
  34	  47
  34	  48
  34	  56
  34	  57
  34	  58
  34	  59
  35	  37
  35	  41
  35	  42
  35	  50
  35	  51
  35	  53
  35	  55
  35	  58
  36	  37
  36	  41
  36	  42
  36	  46
  36	  49
  36	  50
  36	  56
  36	  57
  36	  58
  37	  39
  37	  40
  37	  44
  37	  45
  37	  47
  37	  49
  37	  50
  37	  51
  37	  52
  37	  56
  37	  58
  38	  39
  38	  40
  38	  41
  38	  42
  38	  43
  38	  47
  38	  48
  38	  53
  38	  55
  38	  58
  38	  59
  39	  40
  39	  44
  39	  46
  39	  47
  39	  49
  39	  51
  39	  52
  39	  54
  39	  55
  39	  56
  40	  42
  40	  43
  40	  46
  40	  48
  40	  49
  40	  50
  40	  51
  40	  52
  40	  54
  40	  56
  40	  58
  40	  59
  41	  43
  41	  49
  41	  50
  41	  52
  41	  57
  41	  58
  42	  44
  42	  49
  42	  51
  42	  52
  42	  53
  42	  56
  42	  57
  43	  44
  43	  45
  43	  47
  43	  52
  43	  55
  43	  57
  44	  47
  44	  48
  44	  50
  44	  51
  44	  52
  44	  53
  44	  54
  44	  56
  45	  49
  45	  50
  45	  51
  45	  53
  45	  56
  45	  58
  46	  52
  46	  54
  46	  55
  47	  52
  47	  54
  47	  56
  48	  49
  49	  51
  49	  52
  49	  53
  49	  54
  49	  56
  49	  57
  49	  59
  50	  51
  50	  53
  50	  54
  50	  55
  50	  57
  51	  52
  51	  53
  51	  54
  51	  59
  52	  53
  52	  54
  52	  55
  52	  57
  53	  54
  53	  58
  54	  55
  54	  57
  54	  59
  55	  56
  55	  58
  55	  59
  56	  57
  56	  58
;
